10
0 256 496 256 170 211 488 361 112 185 
256 0 367 269 104 210 226 137 138 302 
496 367 0 321 401 101 399 379 232 200 
256 269 321 0 232 153 296 140 332 305 
170 104 401 232 0 234 489 301 390 159 
211 210 101 153 234 0 413 379 421 426 
488 226 399 296 489 413 0 464 288 195 
361 137 379 140 301 379 464 0 469 398 
112 138 232 332 390 421 288 469 0 322 
185 302 200 305 159 426 195 398 322 0 
